solution status: time limit reached
objective value:                     60.9999998892713
shell_j_$_243                                       1 	(obj:0)
shell_j_$_254                                       1 	(obj:0)
shell_j_$_245                                       1 	(obj:0)
shell_i_$_74                                        1 	(obj:0)
shell_j_$_147                                       1 	(obj:0)
shell_j_$_279                                       1 	(obj:0)
shell_j_$_213                                       1 	(obj:0)
shell_j_$_197                                       1 	(obj:0)
shell_j_$_80                                        1 	(obj:0)
shell_j_$_154                                       1 	(obj:0)
shell_j_$_87                                        1 	(obj:0)
shell_j_$_203                                       1 	(obj:0)
shell_j_$_236                                       1 	(obj:0)
shell_j_$_196                                       1 	(obj:0)
shell_i_$_241                        1.00000000021843 	(obj:0)
shell_j_$_85                                        1 	(obj:0)
shell_i_$_195                                       1 	(obj:0)
shell_i_$_205                                       1 	(obj:0)
shell_j_$_239                                       1 	(obj:0)
shell_i_$_198                                       1 	(obj:0)
shell_i_$_159                                       1 	(obj:0)
shell_j_$_202                                       1 	(obj:0)
shell_j_$_277                                       1 	(obj:0)
shell_j_$_81                                        1 	(obj:0)
shell_j_$_84                                        1 	(obj:0)
shell_j_$_157                                       1 	(obj:0)
shell_j_$_156                                       1 	(obj:0)
shell_j_$_75                                        1 	(obj:0)
shell_j_$_82                                        1 	(obj:0)
shell_j_$_278                                       1 	(obj:0)
shell_i_$_200                                       1 	(obj:0)
shell_j_$_188                                       1 	(obj:0)
shell_j_$_172                                       1 	(obj:0)
shell_i_$_237                                       1 	(obj:0)
shell_j_$_237                                       1 	(obj:0)
shell_j_$_229                                       1 	(obj:0)
shell_i_$_97                                        1 	(obj:0)
shell_j_$_83                                        1 	(obj:0)
shell_j_$_162                                       1 	(obj:0)
shell_j_$_270                                       1 	(obj:0)
shell_j_$_79                                        1 	(obj:0)
shell_j_$_161                                       1 	(obj:0)
shell_j_$_164                                       1 	(obj:0)
shell_j_$_204                                       1 	(obj:0)
shell_j_$_78                                        1 	(obj:0)
shell_j_$_155                                       1 	(obj:0)
shell_j_$_238                                       1 	(obj:0)
shell_j_$_244                                       1 	(obj:0)
shell_j_$_246                                       1 	(obj:0)
shell_j_$_86                                        1 	(obj:0)
shell_j_$_96                                        1 	(obj:0)
shell_j_$_163                                       1 	(obj:0)
$_159_z                                            14 	(obj:0)
$_80_x                                             12 	(obj:0)
$_80_y                                             12 	(obj:0)
$_202_x                                            12 	(obj:0)
$_202_y                                            12 	(obj:0)
$_202_z                                             8 	(obj:0)
$_80_z                                             11 	(obj:0)
$_74_y                                             12 	(obj:0)
$_277_x                                            12 	(obj:0)
$_277_y                                            12 	(obj:0)
$_277_z                                            10 	(obj:0)
$_74_z                                              9 	(obj:0)
$_154_x                                            12 	(obj:0)
$_81_x                                             12 	(obj:0)
$_81_y                                             12 	(obj:0)
$_81_z                                             23 	(obj:0)
$_154_y                                            12 	(obj:0)
$_154_z                                            19 	(obj:0)
$_84_x                                             12 	(obj:0)
$_84_y                                             12 	(obj:0)
$_84_z                              -15.9999999996703 	(obj:0)
$_254_y                                            12 	(obj:0)
$_157_x                                            12 	(obj:0)
$_157_y                                            12 	(obj:0)
$_157_z                                            -2 	(obj:0)
$_87_x                               12.0000000898774 	(obj:0)
$_87_y                                             12 	(obj:0)
$_156_x                                            12 	(obj:0)
$_156_y                                            12 	(obj:0)
$_156_z                                            -5 	(obj:0)
$_147_x                                            11 	(obj:0)
$_75_x                                             12 	(obj:0)
$_75_y                                             12 	(obj:0)
$_75_z                               20.0000000044012 	(obj:0)
$_147_y                                            12 	(obj:0)
$_203_x                                            12 	(obj:0)
$_82_x                                             12 	(obj:0)
$_82_y                                             12 	(obj:0)
$_82_z                                            -15 	(obj:0)
$_203_y                                            12 	(obj:0)
$_203_z                                            17 	(obj:0)
$_278_x                                            12 	(obj:0)
$_278_y                                            12 	(obj:0)
$_278_z                             -14.0000000056872 	(obj:0)
$_147_z                                            10 	(obj:0)
$_243_z                                             5 	(obj:0)
$_200_x                                            12 	(obj:0)
$_200_y                                            11 	(obj:0)
$_200_z                                            10 	(obj:0)
$_236_x                                            11 	(obj:0)
$_236_y                                            12 	(obj:0)
$_188_x                                            12 	(obj:0)
$_188_y                                            12 	(obj:0)
$_188_z                                             6 	(obj:0)
$_236_z                                            13 	(obj:0)
$_243_x                                            12 	(obj:0)
$_172_x                                            12 	(obj:0)
$_172_y                                            12 	(obj:0)
$_172_z                                             7 	(obj:0)
$_279_x                                            12 	(obj:0)
$_196_x                                            12 	(obj:0)
$_237_x                                            12 	(obj:0)
$_237_y                                            12 	(obj:0)
$_237_z                                            14 	(obj:0)
$_196_y                                            12 	(obj:0)
$_196_z                                            18 	(obj:0)
$_229_x                              11.0000000528571 	(obj:0)
$_229_y                                            12 	(obj:0)
$_229_z                                             2 	(obj:0)
$_279_y                                            12 	(obj:0)
$_279_z                                             2 	(obj:0)
$_97_x                                             12 	(obj:0)
$_97_y                                             11 	(obj:0)
$_97_z                                              9 	(obj:0)
$_241_x                              12.0000000000011 	(obj:0)
$_241_y                              11.0000000061798 	(obj:0)
$_83_x                                             12 	(obj:0)
$_83_y                                             12 	(obj:0)
$_83_z                                             -1 	(obj:0)
$_241_z                                             6 	(obj:0)
$_245_x                                            12 	(obj:0)
$_162_x                                            12 	(obj:0)
$_162_y                                            12 	(obj:0)
$_162_z                              21.0000000016194 	(obj:0)
$_245_y                                            12 	(obj:0)
$_85_x                                             12 	(obj:0)
$_270_x                                             8 	(obj:0)
$_270_y                                            12 	(obj:0)
$_270_z                                            -2 	(obj:0)
$_85_y                                             12 	(obj:0)
$_85_z                                             -3 	(obj:0)
$_79_x                                             12 	(obj:0)
$_79_y                                             12 	(obj:0)
$_79_z                                             15 	(obj:0)
$_213_x                                            12 	(obj:0)
$_213_y                                            12 	(obj:0)
$_161_x                                            12 	(obj:0)
$_161_y                                            12 	(obj:0)
$_161_z                                            12 	(obj:0)
$_195_x                                            12 	(obj:0)
$_195_y                                            12 	(obj:0)
$_164_x                                            12 	(obj:0)
$_164_y                                            12 	(obj:0)
$_164_z                                            -4 	(obj:0)
$_195_z                                            16 	(obj:0)
$_213_z                                             4 	(obj:0)
$_204_x                              11.0000000860476 	(obj:0)
$_204_y                                            12 	(obj:0)
$_204_z                                           -10 	(obj:0)
$_245_z                             -13.0000000090108 	(obj:0)
$_205_x                                            12 	(obj:0)
$_78_x                                             12 	(obj:0)
$_78_y                                             12 	(obj:0)
$_78_z                                              3 	(obj:0)
$_205_y                                            12 	(obj:0)
$_205_z                                            -8 	(obj:0)
$_155_x                                            12 	(obj:0)
$_155_y                                            12 	(obj:0)
$_155_z                                            22 	(obj:0)
$_243_y                                            12 	(obj:0)
$_197_x                                            12 	(obj:0)
$_238_x                                            12 	(obj:0)
$_238_y                                            12 	(obj:0)
$_238_z                                           -11 	(obj:0)
$_239_x                                            12 	(obj:0)
$_239_y                                            12 	(obj:0)
$_244_x                                            12 	(obj:0)
$_244_y                                            12 	(obj:0)
$_244_z                                            13 	(obj:0)
$_239_z                                           -10 	(obj:0)
$_197_y                                            12 	(obj:0)
$_246_x                              10.0000000457806 	(obj:0)
$_246_y                                            12 	(obj:0)
$_246_z                                           -10 	(obj:0)
$_197_z                                            -9 	(obj:0)
$_198_x                                            12 	(obj:0)
$_86_x                                              8 	(obj:0)
$_86_y                                             12 	(obj:0)
$_86_z                                            -12 	(obj:0)
$_198_y                                            12 	(obj:0)
$_198_z                                            -6 	(obj:0)
$_96_x                                              8 	(obj:0)
$_96_y                                             12 	(obj:0)
$_96_z                                             -3 	(obj:0)
$_254_x                              11.0000000554497 	(obj:0)
$_74_x                                             12 	(obj:0)
$_163_x                                            11 	(obj:0)
$_163_y                                            12 	(obj:0)
$_163_z                                            -6 	(obj:0)
$_159_x                                            12 	(obj:0)
$_159_y                                            11 	(obj:0)
x258                                                1 	(obj:1)
x261                                                1 	(obj:1)
x262                                0.999999938371647 	(obj:1)
x265                                 1.00000004968582 	(obj:1)
x267                                                2 	(obj:1)
x270                                 1.00000000305883 	(obj:1)
x273                                0.999999983209916 	(obj:1)
x275                             -2.3572898632944e-09 	(obj:1)
x277                                                1 	(obj:1)
x288                                                2 	(obj:1)
x291                                                2 	(obj:1)
x300                                                1 	(obj:1)
x303                                                1 	(obj:1)
x304                             -5.99673359872368e-09 	(obj:1)
x309                                                2 	(obj:1)
x313                                 1.00000000146407 	(obj:1)
x316                                                1 	(obj:1)
x318                                                2 	(obj:1)
x324                                                1 	(obj:1)
x325                             -2.35786683326158e-09 	(obj:1)
x326                                 0.99999998764156 	(obj:1)
x336                                                1 	(obj:1)
x339                                                2 	(obj:1)
x362                                 0.99999999764271 	(obj:1)
x366                                 1.99999999488551 	(obj:1)
x369                             -2.35728984847897e-09 	(obj:1)
x375                                                1 	(obj:1)
x393                                                2 	(obj:1)
x408                             -4.68913005417343e-09 	(obj:1)
x409                                                2 	(obj:1)
x413                                 0.99999999764271 	(obj:1)
x420                                                1 	(obj:1)
x423                                                1 	(obj:1)
x428                             -3.91687375333108e-09 	(obj:1)
x429                                                1 	(obj:1)
x430                                0.999999994291816 	(obj:1)
x434                                 0.99999999764271 	(obj:1)
x441                                0.999999996920042 	(obj:1)
x444                             -1.46203271748586e-09 	(obj:1)
x453                                                2 	(obj:1)
x459                                                2 	(obj:1)
x463                                0.999999995991198 	(obj:1)
x465                                                2 	(obj:1)
x466                                0.999999993019389 	(obj:1)
x483                                                2 	(obj:1)
x486                                 1.99999999488551 	(obj:1)
x489                             -2.3572898632944e-09 	(obj:1)
x490                                 1.99999994804079 	(obj:1)
x493                             4.02605178833614e-08 	(obj:1)
x495                                                2 	(obj:1)
x502                                                1 	(obj:1)
x504                                                2 	(obj:1)
x505                                                1 	(obj:1)
